NAME: Random_60_5
ELLAPSED_TIME_(ms): 0
TOUR_SIZE: 1302.5621
TOUR_SECTION
0
4
52
40
22
29
41
32
39
26
2
9
6
42
56
44
34
48
5
17
23
1
31
55
3
15
10
43
36
7
54
35
37
16
18
8
12
21
45
33
59
28
13
58
57
51
49
11
53
19
25
50
14
20
38
46
47
27
24
30
0
EOF
